
mapping with 16 threads...

 0:00:00.75 Mapping INCOV108-AC.extracted.fq.gz to NUC reference...

 0:05:42.70 Generating binary hit matrix.
0:05:42.74 Loading /labs/khatrilab/solomonb/covid/isb/optitype/INCOV108-AC_1.bam started. Number of HLA reads loaded (updated every thousand):
1K...2K...3K...4K...5K...6K...7K...8K...9K...10K...11K...12K...13K...14K...15K...16K...17K...18K...19K...20K...21K...22K...23K...24K...25K...26K...27K...28K...29K...30K...31K...32K...33K...34K...35K...36K...37K...38K...39K...40K...41K...42K...43K...44K...45K...46K...47K...48K...49K...50K...51K...52K...53K...54K...55K...56K...57K...58K...59K...60K...61K...62K...63K...64K...65K...66K...67K...68K...69K...70K...71K...72K...73K...74K...75K...76K...77K...78K...79K...80K...81K...82K...83K...84K...85K...86K...87K...88K...89K...90K...91K...92K...93K...94K...95K...96K...97K...98K...99K...100K...101K...102K...103K...104K...105K...106K...107K...108K...109K...110K...111K...112K...113K...114K...115K...116K...117K...118K...119K...120K...121K...122K...123K...124K...125K...126K...127K...128K...129K...130K...131K...
 0:06:35.12 131271 reads loaded. Creating dataframe...
0:18:40.98 Dataframes created. Shape: 131271 x 7339, hits: 45721445 (45741318), sparsity: 1 in 21.06

 0:19:04.65 temporary pruning of identical rows and columns

 0:19:06.14 Size of mtx with unique rows and columns: (2570, 1745)
0:19:06.14 determining minimal set of non-overshadowed alleles

 0:19:35.68 Keeping only the minimal number of required alleles (785,)

 0:19:36.29 Creating compact model...

starting ilp solver with 1 threads...

 0:21:01.12 Initializing OptiType model...
GLPSOL: GLPK LP/MIP Solver, v4.57
Parameter(s) specified in the command line:
 --write /tmp/tmpVBsX0n.glpk.raw --wglp /tmp/tmp3CVU4y.glpk.glp --cpxlp /tmp/tmpA33dEW.pyomo.lp
Reading problem data from '/tmp/tmpA33dEW.pyomo.lp'...
/tmp/tmpA33dEW.pyomo.lp:112264: warning: lower bound of variable 'x6961' redefined
/tmp/tmpA33dEW.pyomo.lp:112264: warning: upper bound of variable 'x6961' redefined
6960 rows, 4261 columns, 83641 non-zeros
2522 integer variables, all of which are binary
114786 lines were read
Writing problem data to '/tmp/tmp3CVU4y.glpk.glp'...
107038 lines were written
GLPK Integer Optimizer, v4.57
6960 rows, 4261 columns, 83641 non-zeros
2522 integer variables, all of which are binary
Preprocessing...
1556 hidden covering inequaliti(es) were detected
6956 rows, 4259 columns, 83635 non-zeros
2521 integer variables, all of which are binary
Scaling...
 A: min|aij| =  1.000e+00  max|aij| =  5.000e+00  ratio =  5.000e+00
Problem data seem to be well scaled
Constructing initial basis...
Size of triangular part is 6956
Solving LP relaxation...
GLPK Simplex Optimizer, v4.57
6956 rows, 4259 columns, 83635 non-zeros
      0: obj =  -0.000000000e+00 inf =   4.000e+00 (4)
      4: obj =  -0.000000000e+00 inf =   0.000e+00 (0)
*   500: obj =   9.614858900e+04 inf =   2.398e-15 (1586) 1
*  1000: obj =   1.087285980e+05 inf =   9.548e-15 (1258)
*  1500: obj =   1.094145570e+05 inf =   4.996e-15 (952) 1
*  2000: obj =   1.096188310e+05 inf =   7.550e-15 (768)
*  2500: obj =   1.099704010e+05 inf =   3.153e-14 (450)
*  2955: obj =   1.102282510e+05 inf =   3.331e-15 (0)
OPTIMAL LP SOLUTION FOUND
Integer optimization begins...
+  2955: mip =     not found yet <=              +inf        (1; 0)
+  2955: >>>>>   1.102282510e+05 <=   1.102282510e+05   0.0% (1; 0)
+  2955: mip =   1.102282510e+05 <=     tree is empty   0.0% (0; 1)
INTEGER OPTIMAL SOLUTION FOUND
Time used:   0.7 secs
Memory used: 17.7 Mb (18607413 bytes)
Writing MIP solution to '/tmp/tmpVBsX0n.glpk.raw'...
11223 lines were written

 0:21:12.04 Result dataframe has been constructed...
